35 35
22
3 3 0 13
3 4 0 9
3 5 11 0
3 6 32 0
3 7 32 28
3 8 15 27
3 9 0 0
3 10 32 18
3 12 32 6
3 19 0 16
3 22 15 5
4 3 7 8
4 4 11 25
4 5 14 0
4 6 11 29
4 7 7 11
4 8 7 0
4 12 3 0
4 17 7 18
4 20 11 5
4 23 3 12
14 35 18 0
